db/data/253803202188951111226977295322199524481.z3.out
-------------------
2500.139615047
